problems/csplib-prob015/SchursLemma-models/noch/O2/lingeling/model_1_3-6-11-solution000001.solution
language Essence 1.3

letting boxes be partition({1, 3, 5}, {2}, {4}, {6, 10}, {7, 8}, {9, 11})
